44 3 1
45 4 1
46 5 1
47 6 1
48 7 1
49 8 1
50 9 1
51 10 1
52 11 1
53 12 1
54 13 1
55 14 1
56 15 1
57 16 1
58 17 1
59 18 1
60 19 1
61 20 1
62 21 1
63 22 1
64 23 1
65 24 1
66 25 1
67 26 1
68 27 1
69 28 1
70 29 1
71 30 1
72 31 1
73 32 1
74 33 1
75 34 1
76 35 1
41 36 1
42 37 1
43 38 1
41 40 1
42 41 1
43 42 1
80 46 1
81 47 1
82 48 1
83 49 1
84 50 1
85 51 1
86 52 1
87 53 1
88 54 1
89 55 1
90 56 1
91 57 1
92 58 1
93 59 1
94 60 1
95 61 1
96 62 1
97 63 1
98 64 1
99 65 1
100 66 1
101 67 1
102 68 1
103 69 1
104 70 1
105 71 1
106 72 1
107 73 1
108 74 1
109 75 1
110 76 1
111 77 1
112 78 1
113 79 1
77 80 1
78 81 1
79 82 1
77 84 1
78 85 1
79 86 1
8 88 1
117 90 1
118 91 1
119 92 1
120 93 1
121 94 1
122 95 1
123 96 1
124 97 1
125 98 1
126 99 1
127 100 1
128 101 1
129 102 1
130 103 1
131 104 1
132 105 1
133 106 1
134 107 1
135 108 1
136 109 1
137 110 1
138 111 1
139 112 1
140 113 1
141 114 1
142 115 1
143 116 1
144 117 1
145 118 1
146 119 1
147 120 1
148 121 1
149 122 1
114 123 1
115 124 1
116 125 1
114 127 1
115 128 1
116 129 1
11 131 1
153 133 1
154 134 1
155 135 1
156 136 1
157 137 1
158 138 1
159 139 1
160 140 1
161 141 1
162 142 1
163 143 1
164 144 1
165 145 1
166 146 1
167 147 1
168 148 1
169 149 1
170 150 1
171 151 1
172 152 1
173 153 1
174 154 1
175 155 1
176 156 1
177 157 1
178 158 1
179 159 1
180 160 1
181 161 1
182 162 1
183 163 1
184 164 1
185 165 1
186 166 1
150 167 1
151 168 1
152 169 1
150 171 1
151 172 1
152 173 1
14 175 1
190 177 1
191 178 1
192 179 1
193 180 1
194 181 1
195 182 1
196 183 1
197 184 1
198 185 1
199 186 1
200 187 1
201 188 1
202 189 1
203 190 1
204 191 1
205 192 1
206 193 1
207 194 1
208 195 1
209 196 1
210 197 1
211 198 1
212 199 1
213 200 1
214 201 1
215 202 1
216 203 1
217 204 1
218 205 1
219 206 1
220 207 1
221 208 1
222 209 1
187 210 1
188 211 1
189 212 1
187 214 1
188 215 1
189 216 1
226 220 1
227 221 1
228 222 1
229 223 1
230 224 1
231 225 1
232 226 1
233 227 1
234 228 1
235 229 1
236 230 1
237 231 1
238 232 1
239 233 1
240 234 1
241 235 1
242 236 1
243 237 1
244 238 1
245 239 1
246 240 1
247 241 1
248 242 1
249 243 1
250 244 1
251 245 1
252 246 1
253 247 1
254 248 1
255 249 1
256 250 1
257 251 1
258 252 1
259 253 1
223 254 1
224 255 1
225 256 1
223 258 1
224 259 1
225 260 1
20 262 1
263 264 1
264 265 1
265 266 1
266 267 1
267 268 1
268 269 1
269 270 1
270 271 1
271 272 1
272 273 1
273 274 1
274 275 1
275 276 1
276 277 1
277 278 1
278 279 1
279 280 1
280 281 1
281 282 1
282 283 1
283 284 1
284 285 1
285 286 1
286 287 1
287 288 1
288 289 1
289 290 1
290 291 1
291 292 1
292 293 1
293 294 1
294 295 1
295 296 1
260 297 1
261 298 1
262 299 1
260 301 1
261 302 1
262 303 1
23 305 1
299 307 1
300 308 1
301 309 1
302 310 1
303 311 1
304 312 1
305 313 1
306 314 1
307 315 1
308 316 1
309 317 1
310 318 1
311 319 1
312 320 1
313 321 1
314 322 1
315 323 1
316 324 1
317 325 1
318 326 1
319 327 1
320 328 1
321 329 1
322 330 1
323 331 1
324 332 1
325 333 1
326 334 1
327 335 1
328 336 1
329 337 1
330 338 1
331 339 1
332 340 1
296 341 1
297 342 1
298 343 1
296 345 1
297 346 1
298 347 1
26 349 1
27 350 1
336 352 1
337 353 1
338 354 1
339 355 1
340 356 1
341 357 1
342 358 1
343 359 1
344 360 1
345 361 1
346 362 1
347 363 1
348 364 1
349 365 1
350 366 1
351 367 1
352 368 1
353 369 1
354 370 1
355 371 1
356 372 1
357 373 1
358 374 1
359 375 1
360 376 1
361 377 1
362 378 1
363 379 1
364 380 1
365 381 1
366 382 1
367 383 1
368 384 1
333 385 1
334 386 1
335 387 1
333 389 1
334 390 1
335 391 1
372 395 1
373 396 1
374 397 1
375 398 1
376 399 1
377 400 1
378 401 1
379 402 1
380 403 1
381 404 1
382 405 1
383 406 1
384 407 1
385 408 1
386 409 1
387 410 1
388 411 1
389 412 1
390 413 1
391 414 1
392 415 1
393 416 1
394 417 1
395 418 1
396 419 1
397 420 1
398 421 1
399 422 1
400 423 1
401 424 1
402 425 1
403 426 1
404 427 1
405 428 1
369 429 1
370 430 1
371 431 1
369 433 1
370 434 1
371 435 1
33 437 1
409 439 1
410 440 1
411 441 1
412 442 1
413 443 1
414 444 1
415 445 1
416 446 1
417 447 1
418 448 1
419 449 1
420 450 1
421 451 1
422 452 1
423 453 1
424 454 1
425 455 1
426 456 1
427 457 1
428 458 1
429 459 1
430 460 1
431 461 1
432 462 1
433 463 1
434 464 1
435 465 1
436 466 1
437 467 1
438 468 1
439 469 1
440 470 1
441 471 1
406 472 1
407 473 1
408 474 1
406 476 1
407 477 1
408 478 1
36 480 1
445 482 1
446 483 1
447 484 1
448 485 1
449 486 1
450 487 1
451 488 1
452 489 1
453 490 1
454 491 1
455 492 1
456 493 1
457 494 1
458 495 1
459 496 1
460 497 1
461 498 1
462 499 1
463 500 1
464 501 1
465 502 1
466 503 1
467 504 1
468 505 1
469 506 1
470 507 1
471 508 1
472 509 1
473 510 1
474 511 1
475 512 1
476 513 1
477 514 1
478 515 1
442 516 1
443 517 1
444 518 1
442 520 1
443 521 1
444 522 1
39 524 1
40 525 1
